p cnf 70 35
-33 19 24 0
-54 -17 57 0
-42 43 22 0
-22 -9 -21 0
66 31 36 0
55 52 -38 0
-61 -7 -22 0
52 -42 37 0
31 2 -19 0
62 20 60 0
-32 -6 44 0
-70 7 -52 0
-8 -35 -9 0
-13 18 -28 0
-52 -19 -2 0
66 29 26 0
-5 -3 9 0
-20 52 10 0
66 -16 -11 0
-60 33 -51 0
-47 62 -65 0
33 52 -12 0
39 -61 -53 0
-2 30 18 0
16 63 9 0
-36 -21 31 0
-64 -41 -31 0
-24 43 37 0
-36 -59 6 0
-32 -43 35 0
-20 40 30 0
-24 -35 -46 0
58 -54 51 0
69 -23 15 0
10 -58 54 0
